minizinc/sudoku_problems2/sudoku_p50.dzn
%
% sudoku_p50.dzn
% See http://www.hakank.org/minizinc/sudoku_gcc.mzn
% 
% This problem is problem 50 from
% Gecode's sudoku.cpp
% http://www.gecode.org/gecode-doc-latest/sudoku_8cpp-source.html
% 
x = array2d(1..n, 1..n, [   
% http://janko.at/Raetsel/Sudoku/367.a.htm
% 50
 11,  _,  _,  _,  _,  _,  _,  _,  _,  4,  5, 13, 12,  _,  6, 10,
  4,  _, 15,  _,  _,  _,  6,  3,  9,  _, 12, 10,  _, 14,  _,  _,
  _,  9, 10,  _,  _,  _, 12, 13,  2,  6,  _,  8, 15,  1, 11,  _,
  6,  _, 12,  3,  _,  7,  _,  8,  _, 15,  _,  _,  9,  _,  _,  _,
 13,  6,  8,  _, 14,  _,  _, 11,  _,  _,  _,  5,  _,  _,  _,  _,
  7,  3,  _,  _,  _,  8, 10,  5,  _,  _,  9,  _,  2,  _,  _,  _,
 10,  _, 16,  1,  _,  _,  9,  _,  _,  2,  6,  _,  _, 13,  8,  _,
  _, 12,  9,  _,  _,  _,  _,  _,  _,  _,  8,  1, 10,  6, 14,  _,
  _,  5,  7,  4, 15, 10,  _,  _,  _,  _,  _,  _,  _, 16,  1,  _,
  _, 10, 13,  _,  _,  3,  7,  _,  _, 16,  _,  _,  4, 15,  _, 14,
  _,  _,  _,  9,  _, 16,  _,  _,  4,  5,  2,  _,  _,  _, 12, 13,
  _,  _,  _,  _, 11,  _,  _,  _, 15,  _,  _,  9,  _,  7,  2,  5,
  _,  _,  _, 11,  _,  _, 16,  _, 12,  _, 15,  _,  1,  2,  _,  9,
  _,  1,  6, 10, 12,  _,  5, 15, 16,  3,  _,  _,  _,  8, 13,  _,
  _,  _,  2,  _,  3,  6,  _,  7,  5,  9,  _,  _,  _, 12,  _, 15,
 15,  8,  _, 12,  1,  9,  4,  _,  _,  _,  _,  _,  _,  _,  _,  6
]);

n = 16;


